HD 0006      2017-04-27
00006110000000010000500000
00006110000000030000235432
00006110000000010590839052
00006110000000010590839052
00006110000000010590839052
00006110000000010590839052
00006110000000010590839052
00006110000000010590839052
00006110000000010590839052
00006110000000010590839052
00006110000000010590839052
00006110000000010590839052
00006110000000010590839052
00006110000000010000000595
00006110000000010000353252
